Sat 19 May 19:22:06 CEST 2018
CPXPARAM_TimeLimit                               45
CPXPARAM_Threads                                 1
CPXPARAM_MIP_Strategy_CallbackReducedLP          0
Tried aggregator 4 times.
MIP Presolve eliminated 3824 rows and 3888 columns.
MIP Presolve modified 9955 coefficients.
Aggregator did 18916 substitutions.
Reduced MIP has 25598 rows, 18184 columns, and 55861 nonzeros.
Reduced MIP has 16697 binaries, 11 generals, 0 SOSs, and 2176 indicators.
Presolve time = 0.34 sec. (919.37 ticks)
Probing time = 0.21 sec. (138.15 ticks)
Tried aggregator 3 times.
Aggregator did 11934 substitutions.
Reduced MIP has 13664 rows, 6250 columns, and 31993 nonzeros.
Reduced MIP has 4763 binaries, 1487 generals, 0 SOSs, and 2176 indicators.
Presolve time = 0.06 sec. (70.40 ticks)
Probing time = 0.12 sec. (109.61 ticks)
Tried aggregator 1 time.
Reduced MIP has 13664 rows, 6250 columns, and 31993 nonzeros.
Reduced MIP has 4763 binaries, 1487 generals, 0 SOSs, and 2176 indicators.
Presolve time = 0.03 sec. (28.00 ticks)
Probing time = 0.01 sec. (6.29 ticks)
Clique table members: 225745.
MIP emphasis: balance optimality and feasibility.
MIP search method: dynamic search.
Parallel mode: none, using 1 thread.
Root relaxation solution time = 0.08 sec. (103.87 ticks)

        Nodes                                         Cuts/
   Node  Left     Objective  IInf  Best Integer    Best Bound    ItCnt     Gap

      0     0        0.0000  3251                      0.0000      844         
      0     2        0.0000   619                      0.0000      844         
Elapsed time = 10.53 sec. (10419.62 ticks, tree = 0.01 MB, solutions = 0)
      2     4        0.0000  1914                      0.0000     3056         
      5     7        0.0000  1443                      0.0000     5006         
     20    22       10.0000   489                      0.0000     5761         
     49    51        6.0000   415                      0.0000     6629         
     90    92        0.0000   385                      0.0000     7080         
    150   152        0.0000   198                      0.0000     7291         
    212   210        8.0000    94                      0.0000     7517         
    262   258       25.0000    19                      0.0000     7905         
*   275   222      integral     0       25.0000        0.0000     7908  100.00%
*   280+  212                           23.0000        0.0000           100.00%
*   310+  235                           22.0000        0.0000           100.00%
    310   235       21.0000    10       22.0000        0.0000     8105  100.00%
*   330+  201                           21.0000        0.0000           100.00%
*   506   259      integral     0       17.0000        0.0000     9459  100.00%
    507   258        2.0000   149       17.0000        0.0000     9576  100.00%
Elapsed time = 12.90 sec. (13741.01 ticks, tree = 1.59 MB, solutions = 5)
*   618+  330                           15.0000        0.0000           100.00%
*   619+  319                           14.0000        0.0000           100.00%
*   720+  334                           13.0000        0.0000           100.00%
    777   386       11.0000    38       13.0000        0.0000    13024  100.00%
*   830+  290                           12.0000        0.0000           100.00%
*   830+  193                           11.0000        0.0000           100.00%
    830   194        0.0000   603       11.0000        0.0000    16407  100.00%
*   860+  136                           10.0000        0.0000           100.00%
*   890+   95                            9.0000        0.0000           100.00%
*   908    60      integral     0        8.0000        0.0000    21803  100.00%
    930    42        6.0000   360        8.0000        0.0000    22859  100.00%
    995    70        0.0000   314        8.0000        0.0000    26951  100.00%
   1059    86    infeasible              8.0000        0.0000    31720  100.00%
   1090    91        3.0000   338        8.0000        0.0000    37107  100.00%
   1119    88        2.0000   301        8.0000        2.0000    42233   75.00%
   1163    66        4.0000   254        8.0000        4.0000    50381   50.00%
   1198    51        5.0000   592        8.0000        5.0000    58095   37.50%
   1238    33        6.0000   315        8.0000        6.0000    65350   25.00%
Elapsed time = 22.31 sec. (26732.32 ticks, tree = 0.66 MB, solutions = 13)
   1266    23    infeasible              8.0000        6.0000    72208   25.00%

GUB cover cuts applied:  2
Clique cuts applied:  95
Implied bound cuts applied:  84
Mixed integer rounding cuts applied:  4
Zero-half cuts applied:  40
Gomory fractional cuts applied:  13

Root node processing (before b&c):
  Real time             =   10.54 sec. (10422.72 ticks)
Sequential b&c:
  Real time             =   13.22 sec. (18112.78 ticks)
                          ------------
Total (root+branch&cut) =   23.76 sec. (28535.49 ticks)
   | W
 L | 0 1 2 3  4  5  6 
---------------------
 0 | 9 9 9 1 10 10 10 
 1 | 9 9 9 . 10 10 10 
 2 | 9 9 9 2 10 10 10 
 3 | 9 9 9 7 10 10 10 
 4 | 9 9 9 7 10 10 10 
 5 | 5 6 8 8  8  8  8 
 6 | 5 6 8 8  8  8  8 
 7 | 3 4 8 8  8  8  8 
 8 | . . . .  .  .  . 
 9 | . . . .  .  .  . 
10 | . . . .  .  .  . 
11 | . . . .  .  .  . 
12 | . . . .  .  .  . 
13 | . . . .  .  .  . 
14 | . . . .  .  .  . 
15 | . . . .  .  .  . 
16 | . . . .  .  .  . 
17 | . . . .  .  .  . 
18 | . . . .  .  .  . 
19 | . . . .  .  .  . 
20 | . . . .  .  .  . 
21 | . . . .  .  .  . 
22 | . . . .  .  .  . 
23 | . . . .  .  .  . 
24 | . . . .  .  .  . 

Boxes' corners:       (w,l)
    Box  1 is at 
        top left     (3,0)
        bottom right (3,0)

    Box  2 is at 
        top left     (3,2)
        bottom right (3,2)

    Box  3 is at 
        top left     (0,7)
        bottom right (0,7)

    Box  4 is at 
        top left     (1,7)
        bottom right (1,7)

    Box  5 is at 
        top left     (0,5)
        bottom right (0,6)

    Box  6 is at 
        top left     (1,5)
        bottom right (1,6)

    Box  7 is at 
        top left     (3,3)
        bottom right (3,4)

    Box  8 is at 
        top left     (2,5)
        bottom right (6,7)

    Box  9 is at 
        top left     (0,0)
        bottom right (2,4)

    Box 10 is at 
        top left     (4,0)
        bottom right (6,4)

    Roll length used: 8
In 24.08 seconds
